% delay for add operation
del_add = 1;
% delay for mul operation
del_mul = 2;

% number of add units (number of parallell add operations);
number_add = 1;
% number of mul units;
number_mul = 1;

% int : n; % number of operations
n = 28;
% set of int : last;
last = {27,28};
% set of int : add;
add = {9,10,11,12,13,14,19,20,25,26,27,28};
% set of int : mul;
mul = {1,2,3,4,5,6,7,8,15,16,17,18,21,22,23,24};

% array[1..n] of set of int : dependencies;
% the nodes in dependencies[i] depends on the outoput of node i
dependencies = [
{9},
{9},
{10},
{10},
{11},
{11},
{12},
{12},
{27},
{13},
{14},
{28},
{15,17},
{16,18},
{19},
{19},
{20},
{20},
{21,23},
{22,24},
{25},
{25},
{26},
{26},
{27},
{28},
{},
{},
];
